755307
755307
751008
751008
751008
745231
740969
738816
737375
729157
720286
720286
716990
715685
715351
712814
706156
703248
696589
687492
687492
683713
680636
663223
663223
663223
658147
658147
647201
645431
643386
633859
628427
628427
626622
624887
624887
624887
623864
623864
623864
616644
616644
616644
614863
614863
614863
614863
614863
610257
605024
605024
605024
605024
605024
605024
605024
605024
605024
605024
597582
597582
597582
597582
596432
596432
594887
590517
590517
583396
583396
583396
583396
583396
583396
583396
582289
582289
582289
582289
582289
577633
577633
577633
577633
577633
572967
572967
572967
572967
572967
572967
567250
567250
567250
567250
565745
565745
565745
565745
